p cnf 25 18
-1 9 -2 -3 13 21 -22 0 
-4 22 0 
-5 23 -22 0 
-6 23 -22 0 
-7 23 -22 0 
-8 -9 1 24 -22 0 
-10 23 -22 0 
-11 23 -22 0 
-12 23 -22 0 
-2 -4 21 -22 0 
-12 25 0 
-13 3 -14 -15 -16 22 0 
-4 22 0 
-17 -18 19 21 -22 0 
-10 -19 18 21 -22 0 
-17 -20 21 -22 0 
-17 23 -22 0 
-8 23 -22 0 
